
Gurobi 6.0.4 (win64) logging started 06/20/15 12:51:28

Read LP format model from file C:\MT\repository\VRPTWMS\instances\mip\fuel\N12-C_DV100-C_SV30_F6_6_No_1.lp
Reading time = 0.02 seconds
(null): 865 rows, 392 columns, 3639 nonzeros
Optimize a model with 865 rows, 392 columns and 3639 nonzeros
Model has 1728 quadratic constraints
Coefficient statistics:
  Matrix range    [1e+00, 1e+06]
  Objective range [3e+04, 1e+07]
  Bounds range    [1e+00, 1e+06]
  RHS range       [1e+00, 1e+06]
Presolve removed 89 rows and 42 columns
Presolve time: 0.73s
Presolved: 3642 rows, 1783 columns, 19921 nonzeros
Variable types: 1433 continuous, 350 integer (300 binary)
Found heuristic solution: objective 1.250250e+08

Root relaxation: objective 1.889243e+06, 178 iterations, 0.01 seconds

    Nodes    |    Current Node    |     Objective Bounds      |     Work
 Expl Unexpl |  Obj  Depth IntInf | Incumbent    BestBd   Gap | It/Node Time

     0     0 1889242.64    0   52 1.2503e+08 1889242.64  98.5%     -    0s
H    0     0                    9.407160e+07 1889242.64  98.0%     -    0s
     0     0 2918175.15    0   65 9.4072e+07 2918175.15  96.9%     -    0s
     0     0 7056332.72    0   46 9.4072e+07 7056332.72  92.5%     -    0s
H    0     0                    8.395370e+07 7056332.72  91.6%     -    0s
     0     0 7132450.00    0   42 8.3954e+07 7132450.00  91.5%     -    0s
     0     0 7205350.23    0   36 8.3954e+07 7205350.23  91.4%     -    0s
     0     0 7280014.74    0   38 8.3954e+07 7280014.74  91.3%     -    1s
     0     0 7297123.29    0   48 8.3954e+07 7297123.29  91.3%     -    1s
     0     0 7353200.00    0   26 8.3954e+07 7353200.00  91.2%     -    1s
H    0     0                    7.369760e+07 7353200.00  90.0%     -    1s
     0     0 7366012.43    0   44 7.3698e+07 7366012.43  90.0%     -    1s
     0     0 7368185.71    0   43 7.3698e+07 7368185.71  90.0%     -    1s
     0     0 7368185.71    0   43 7.3698e+07 7368185.71  90.0%     -    1s
     0     0 7368185.71    0   42 7.3698e+07 7368185.71  90.0%     -    1s
     0     2 7368185.71    0   42 7.3698e+07 7368185.71  90.0%     -    1s
H   32    27                    5.315980e+07 1.1837e+07  77.7%  26.2    1s
H   59    53                    4.287430e+07 1.1837e+07  72.4%  21.5    1s
H   68    62                    4.284910e+07 1.1837e+07  72.4%  20.6    1s
H  131    88                    4.267830e+07 1.2051e+07  71.8%  20.6    1s
H  165   118                    4.254940e+07 1.2051e+07  71.7%  20.6    1s
H  303   186                    4.248510e+07 1.2095e+07  71.5%  18.5    1s
   745   424 2.2358e+07   18   42 4.2485e+07 2.2142e+07  47.9%  18.5    5s
H 1442   538                    4.246470e+07 2.2252e+07  47.6%  20.4    7s
H 2149   487                    3.243120e+07 2.2300e+07  31.2%  21.6    9s
* 2235   499              26    3.240990e+07 2.2308e+07  31.2%  22.2    9s
  2276   506     cutoff   23      3.2410e+07 2.2314e+07  31.2%  22.4   10s
  3069   565     cutoff   31      3.2410e+07 2.2415e+07  30.8%  28.4   15s
  4147   370     cutoff   27      3.2410e+07 2.2709e+07  29.9%  34.3   20s

Cutting planes:
  Learned: 6
  Gomory: 15
  Cover: 140
  Implied bound: 107
  Clique: 14
  MIR: 43
  Flow cover: 86
  GUB cover: 22
  Zero half: 28

Explored 4942 nodes (178422 simplex iterations) in 22.31 seconds
Thread count was 2 (of 4 available processors)

Optimal solution found (tolerance 1.00e-04)
Best objective 3.240990000000e+07, best bound 3.240990000000e+07, gap 0.0%
k_c1	840000.0
k_c10	969999.9999999999
k_c11	880000.0
k_c12	960000.0
k_c2	890000.0
k_c3	919999.9999999999
k_c4	930000.0
k_c5	1000000.0000000001
k_c6	1000000.0
k_c7	970000.0
k_c8	1000000.0
k_c9	920000.0
k_dN	-0.0
o_1	-0.0
o_10	-0.0
o_11	-0.0
o_12	-0.0
o_2	0.0
o_3	-0.0
o_4	0.0
o_5	-0.0
o_6	-0.0
o_7	-0.0
o_8	-0.0
o_9	-0.0
p_1	0.0
p_10	0.0
p_11	0.0
p_12	0.0
p_2	0.0
p_3	0.0
p_4	0.0
p_5	0.0
p_6	0.0
p_7	0.0
p_8	0.0
p_9	0.0
phi_c1	11393.0
phi_c10	25977.0
phi_c11	13507.0
phi_c12	35343.0
phi_c2	9460.00000000002
phi_c3	15400.000000000015
phi_c4	21796.000000000022
phi_c5	44341.0
phi_c6	41923.99999999997
phi_c7	36467.00000000002
phi_c8	53409.99999999997
phi_c9	28359.0
phi_d0	60000.0
phi_dN	-0.0
tauD_c1	557900.0
tauD_c10	450000.0
tauD_c11	499999.99999999994
tauD_c12	250000.00000000003
tauD_c2	650000.0
tauD_c3	600000.0
tauD_c4	563900.0000000001
tauD_c5	166375.0000000001
tauD_c6	200000.0
tauD_c7	288200.0
tauD_c8	50000.0
tauD_c9	336100.0000000001
tauD_d0	-0.0
tauD_dN	1000000.0
tauS_c1	-0.0
tauS_c10	-0.0
tauS_c11	0.0
tauS_c12	-0.0
tauS_c2	-0.0
tauS_c3	-0.0
tauS_c4	-0.0
tauS_c5	-0.0
tauS_c6	-0.0
tauS_c7	-0.0
tauS_c8	-0.0
tauS_c9	-0.0
tauS_d0	-0.0
tauS_dN	1000000.0
x_c10_c3	1.0
x_c11_c1	1.0
x_c12_c9	1.0
x_c1_dN	1.0
x_c2_dN	1.0
x_c3_dN	1.0
x_c4_c2	1.0
x_c5_c12	1.0
x_c6_c7	1.0
x_c7_c4	1.0
x_c8_c10	1.0
x_c9_c11	1.0
x_d0_c5	1.0
x_d0_c6	1.0
x_d0_c8	1.0
